c initialized bestCost to 0
o 0
c 0 branches 0 propagates
c total generalized unit propagation = 0, success = -nan%
s OPTIMUM FOUND
c Optimal Solution = 0
v -2 -1 -4 -3 -6 -5 -8 -7 -10 -9 -12 -11 -14 -13 -16 -15 -18 -17 -20 -19 -22 -21 -24 -23 -26 -25 -28 -27 -30 -29 -32 -31 -34 -33 -36 -35 -38 -37 -40 -39 -42 -41 -44 -43 -46 -45 -48 -47 49 -50 -51 -52 53 -54 -55 -56 -57 -58 -59 -60 -61 -62 -63 -64 -65 -66 -67 -68 -69 -70 -71 -72
c This is the CCLS_to_akmaxsat solver, Version: MSE2016
c Many thanks to the akmaxsat team!
c start CCLS
c stop CCLS
c start akmaxsat
c stop akmaxsat
